\ LP format - for model browsing. Use MPS format to capture full model detail.
Minimize
  C48(1)
Subject To
 c0: B0(14) + B1(14) = 1
 c1: B2(12) + B3(12) = 1
 c2: B4(14) + B5(14) = 1
 c3: B6(12) + B7(12) = 1
 c4: B8(14) + B9(14) = 1
 c5: B10(12) + B11(12) = 1
 c6: - 71000 B0(14) + C36(14) <= 0
 c7: - 71000 B1(14) + C37(14) <= 0
 c8: - 71000 B2(12) + C38(14) <= 0
 c9: - 71000 B3(12) + C39(14) <= 0
 c10: - 71000 B4(14) + C40(14) <= 0
 c11: - 71000 B5(14) + C41(14) <= 0
 c12: - 71000 B6(12) + C42(14) <= 0
 c13: - 71000 B7(12) + C43(14) <= 0
 c14: - 71000 B8(14) + C44(14) <= 0
 c15: - 71000 B9(14) + C45(14) <= 0
 c16: - 71000 B10(12) + C46(14) <= 0
 c17: - 71000 B11(12) + C47(14) <= 0
 c18: - 43 B0(14) - 36 B1(14) - C36(14) - C37(14) + C38(14) + C39(14) >= 0
 c19: - 71043 B0(14) - 36 B1(14) - 71000 B2(12) - C36(14) - C37(14)
   + C38(14) + C39(14) >= -141997
 c20: - 43 B0(14) - 71036 B1(14) - 71000 B3(12) - C36(14) - C37(14)
   + C38(14) + C39(14) >= -141995
 c21: - 34 B4(14) - 53 B5(14) - C40(14) - C41(14) + C42(14) + C43(14) >= 0
 c22: - 71034 B4(14) - 53 B5(14) - 71000 B6(12) - C40(14) - C41(14)
   + C42(14) + C43(14) >= -141995
 c23: - 34 B4(14) - 71053 B5(14) - 71000 B7(12) - C40(14) - C41(14)
   + C42(14) + C43(14) >= -141997
 c24: - 21 B8(14) - 35 B9(14) - C44(14) - C45(14) + C46(14) + C47(14) >= 0
 c25: - 71021 B8(14) - 35 B9(14) - 71000 B10(12) - C44(14) - C45(14)
   + C46(14) + C47(14) >= -141996
 c26: - 21 B8(14) - 71035 B9(14) - 71000 B11(12) - C44(14) - C45(14)
   + C46(14) + C47(14) >= -141997
 c27: - 71000 B0(14) - 71000 B4(14) - 71000 B12(2) + C36(14) - C40(14)
   >= -212963
 c28: - 71000 B0(14) - 71000 B4(14) + 71000 B12(2) - C36(14) + C40(14)
   >= -141953
 c29: - 71000 B1(14) - 71000 B5(14) - 71000 B13(2) + C37(14) - C41(14)
   >= -212943
 c30: - 71000 B1(14) - 71000 B5(14) + 71000 B13(2) - C37(14) + C41(14)
   >= -141961
 c31: - 71000 B0(14) - 71000 B6(12) - 71000 B14(2) + C36(14) - C42(14)
   >= -212960
 c32: - 71000 B0(14) - 71000 B6(12) + 71000 B14(2) - C36(14) + C42(14)
   >= -141953
 c33: - 71000 B1(14) - 71000 B7(12) - 71000 B15(2) + C37(14) - C43(14)
   >= -212976
 c34: - 71000 B1(14) - 71000 B7(12) + 71000 B15(2) - C37(14) + C43(14)
   >= -141961
 c35: - 71000 B0(14) - 71000 B8(14) - 71000 B16(2) + C36(14) - C44(14)
   >= -212975
 c36: - 71000 B0(14) - 71000 B8(14) + 71000 B16(2) - C36(14) + C44(14)
   >= -141954
 c37: - 71000 B1(14) - 71000 B9(14) - 71000 B17(2) + C37(14) - C45(14)
   >= -212961
 c38: - 71000 B1(14) - 71000 B9(14) + 71000 B17(2) - C37(14) + C45(14)
   >= -141961
 c39: - 71000 B0(14) - 71000 B10(12) - 71000 B18(2) + C36(14) - C46(14)
   >= -212954
 c40: - 71000 B0(14) - 71000 B10(12) + 71000 B18(2) - C36(14) + C46(14)
   >= -141953
 c41: - 71000 B1(14) - 71000 B11(12) - 71000 B19(2) + C37(14) - C47(14)
   >= -212959
 c42: - 71000 B1(14) - 71000 B11(12) + 71000 B19(2) - C37(14) + C47(14)
   >= -141961
 c43: - 71000 B2(12) - 71000 B4(14) - 71000 B20(2) + C38(14) - C40(14)
   >= -212962
 c44: - 71000 B2(12) - 71000 B4(14) + 71000 B20(2) - C38(14) + C40(14)
   >= -141932
 c45: - 71000 B3(12) - 71000 B5(14) - 71000 B21(2) + C39(14) - C41(14)
   >= -212944
 c46: - 71000 B3(12) - 71000 B5(14) + 71000 B21(2) - C39(14) + C41(14)
   >= -141926
 c47: - 71000 B2(12) - 71000 B6(12) - 71000 B22(2) + C38(14) - C42(14)
   >= -212961
 c48: - 71000 B2(12) - 71000 B6(12) + 71000 B22(2) - C38(14) + C42(14)
   >= -141933
 c49: - 71000 B3(12) - 71000 B7(12) - 71000 B23(2) + C39(14) - C43(14)
   >= -212976
 c50: - 71000 B3(12) - 71000 B7(12) + 71000 B23(2) - C39(14) + C43(14)
   >= -141924
 c51: - 71000 B2(12) - 71000 B8(14) - 71000 B24(2) + C38(14) - C44(14)
   >= -212976
 c52: - 71000 B2(12) - 71000 B8(14) + 71000 B24(2) - C38(14) + C44(14)
   >= -141933
 c53: - 71000 B3(12) - 71000 B9(14) - 71000 B25(2) + C39(14) - C45(14)
   >= -212960
 c54: - 71000 B3(12) - 71000 B9(14) + 71000 B25(2) - C39(14) + C45(14)
   >= -141925
 c55: - 71000 B2(12) - 71000 B10(12) - 71000 B26(2) + C38(14) - C46(14)
   >= -212952
 c56: - 71000 B2(12) - 71000 B10(12) + 71000 B26(2) - C38(14) + C46(14)
   >= -141932
 c57: - 71000 B3(12) - 71000 B11(12) - 71000 B27(2) + C39(14) - C47(14)
   >= -212959
 c58: - 71000 B3(12) - 71000 B11(12) + 71000 B27(2) - C39(14) + C47(14)
   >= -141926
 c59: - 71000 B4(14) - 71000 B8(14) - 71000 B28(2) + C40(14) - C44(14)
   >= -212976
 c60: - 71000 B4(14) - 71000 B8(14) + 71000 B28(2) - C40(14) + C44(14)
   >= -141962
 c61: - 71000 B5(14) - 71000 B9(14) - 71000 B29(2) + C41(14) - C45(14)
   >= -212961
 c62: - 71000 B5(14) - 71000 B9(14) + 71000 B29(2) - C41(14) + C45(14)
   >= -141944
 c63: - 71000 B4(14) - 71000 B10(12) - 71000 B30(2) + C40(14) - C46(14)
   >= -212954
 c64: - 71000 B4(14) - 71000 B10(12) + 71000 B30(2) - C40(14) + C46(14)
   >= -141963
 c65: - 71000 B5(14) - 71000 B11(12) - 71000 B31(2) + C41(14) - C47(14)
   >= -212959
 c66: - 71000 B5(14) - 71000 B11(12) + 71000 B31(2) - C41(14) + C47(14)
   >= -141944
 c67: - 71000 B6(12) - 71000 B8(14) - 71000 B32(2) + C42(14) - C44(14)
   >= -212975
 c68: - 71000 B6(12) - 71000 B8(14) + 71000 B32(2) - C42(14) + C44(14)
   >= -141961
 c69: - 71000 B7(12) - 71000 B9(14) - 71000 B33(2) + C43(14) - C45(14)
   >= -212960
 c70: - 71000 B7(12) - 71000 B9(14) + 71000 B33(2) - C43(14) + C45(14)
   >= -141975
 c71: - 71000 B6(12) - 71000 B10(12) - 71000 B34(2) + C42(14) - C46(14)
   >= -212953
 c72: - 71000 B6(12) - 71000 B10(12) + 71000 B34(2) - C42(14) + C46(14)
   >= -141961
 c73: - 71000 B7(12) - 71000 B11(12) - 71000 B35(2) + C43(14) - C47(14)
   >= -212959
 c74: - 71000 B7(12) - 71000 B11(12) + 71000 B35(2) - C43(14) + C47(14)
   >= -141976
 c75: C36(14) >= 0
 c76: C37(14) >= 0
 c77: C38(14) >= 0
 c78: C39(14) >= 0
 c79: C40(14) >= 0
 c80: C41(14) >= 0
 c81: C42(14) >= 0
 c82: C43(14) >= 0
 c83: C44(14) >= 0
 c84: C45(14) >= 0
 c85: C46(14) >= 0
 c86: C47(14) >= 0
 c87: - 43 B0(14) - 36 B1(14) - 64 B2(12) - 71 B3(12) - 34 B4(14)
   - 53 B5(14) - 36 B6(12) - 21 B7(12) - 21 B8(14) - 35 B9(14) - 43 B10(12)
   - 37 B11(12) - C36(14) - C37(14) - C38(14) - C39(14) - C40(14) - C41(14)
   - C42(14) - C43(14) - C44(14) - C45(14) - C46(14) - C47(14) + C48(1)
   = 0
Bounds
Binaries
 B0(14) B1(14) B2(12) B3(12) B4(14) B5(14) B6(12) B7(12) B8(14) B9(14)
 B10(12) B11(12) B12(2) B13(2) B14(2) B15(2) B16(2) B17(2) B18(2) B19(2)
 B20(2) B21(2) B22(2) B23(2) B24(2) B25(2) B26(2) B27(2) B28(2) B29(2)
 B30(2) B31(2) B32(2) B33(2) B34(2) B35(2)
End
